p tw 600 9001 7 
1 8 
1 61 
2 9 
2 10 
2 62 
3 7 
3 10 
3 141 
4 8 
4 9 
4 142 
5 7 
5 9 
5 401 
6 8 
6 10 
6 402 
11 17 
11 18 
11 191 
12 19 
12 20 
12 192 
13 17 
13 20 
13 271 
14 18 
14 19 
14 272 
15 17 
15 19 
15 391 
16 18 
16 20 
16 392 
21 27 
21 28 
21 91 
22 29 
22 30 
22 92 
23 27 
23 30 
23 341 
24 28 
24 29 
24 342 
25 27 
25 29 
25 541 
26 28 
26 30 
26 542 
31 37 
31 38 
31 63 
32 39 
32 40 
32 64 
33 37 
33 40 
33 131 
34 38 
34 39 
34 132 
35 37 
35 39 
35 521 
36 38 
36 40 
36 522 
41 47 
41 48 
41 101 
42 49 
42 50 
42 102 
43 47 
43 50 
43 121 
44 48 
44 49 
44 122 
45 47 
45 49 
45 301 
46 48 
46 50 
46 302 
51 57 
51 58 
51 103 
52 59 
52 60 
52 104 
53 57 
53 60 
53 111 
54 58 
54 59 
54 112 
55 57 
55 59 
55 571 
56 58 
56 60 
56 572 
61 67 
61 68 
62 69 
62 70 
63 67 
63 70 
64 68 
64 69 
65 67 
65 69 
65 71 
66 68 
66 70 
66 72 
71 77 
71 78 
72 79 
72 80 
73 77 
73 80 
73 411 
74 78 
74 79 
74 412 
75 77 
75 79 
75 421 
76 78 
76 80 
76 422 
81 87 
81 88 
81 133 
82 89 
82 90 
82 134 
83 87 
83 90 
83 143 
84 88 
84 89 
84 144 
85 87 
85 89 
85 591 
86 88 
86 90 
86 592 
91 97 
91 98 
92 99 
92 100 
93 97 
93 100 
93 451 
94 98 
94 99 
94 452 
95 97 
95 99 
95 481 
96 98 
96 100 
96 482 
101 107 
101 108 
102 109 
102 110 
103 107 
103 110 
104 108 
104 109 
105 107 
105 109 
105 311 
106 108 
106 110 
106 312 
111 117 
111 118 
112 119 
112 120 
113 117 
113 120 
113 161 
114 118 
114 119 
114 162 
115 117 
115 119 
115 371 
116 118 
116 120 
116 372 
121 127 
121 128 
122 129 
122 130 
123 127 
123 130 
123 461 
124 128 
124 129 
124 462 
125 127 
125 129 
125 543 
126 128 
126 130 
126 544 
131 137 
131 138 
132 139 
132 140 
133 137 
133 140 
134 138 
134 139 
135 137 
135 139 
135 181 
136 138 
136 140 
136 182 
141 147 
141 148 
142 149 
142 150 
143 147 
143 150 
144 148 
144 149 
145 147 
145 149 
145 491 
146 148 
146 150 
146 492 
151 157 
151 158 
151 171 
152 159 
152 160 
152 172 
153 157 
153 160 
153 241 
154 158 
154 159 
154 242 
155 157 
155 159 
155 531 
156 158 
156 160 
156 532 
161 167 
161 168 
162 169 
162 170 
163 167 
163 170 
163 211 
164 168 
164 169 
164 212 
165 167 
165 169 
165 431 
166 168 
166 170 
166 432 
171 177 
171 178 
172 179 
172 180 
173 177 
173 180 
173 281 
174 178 
174 179 
174 282 
175 177 
175 179 
175 373 
176 178 
176 180 
176 374 
181 187 
181 188 
182 189 
182 190 
183 187 
183 190 
183 433 
184 188 
184 189 
184 434 
185 187 
185 189 
185 471 
186 188 
186 190 
186 472 
191 197 
191 198 
192 199 
192 200 
193 197 
193 200 
193 231 
194 198 
194 199 
194 232 
195 197 
195 199 
195 381 
196 198 
196 200 
196 382 
201 207 
201 208 
201 283 
202 209 
202 210 
202 284 
203 207 
203 210 
203 473 
204 208 
204 209 
204 474 
205 207 
205 209 
205 511 
206 208 
206 210 
206 512 
211 217 
211 218 
212 219 
212 220 
213 217 
213 220 
213 393 
214 218 
214 219 
214 394 
215 217 
215 219 
215 483 
216 218 
216 220 
216 484 
221 227 
221 228 
221 251 
222 229 
222 230 
222 252 
223 227 
223 230 
223 463 
224 228 
224 229 
224 464 
225 227 
225 229 
225 523 
226 228 
226 230 
226 524 
231 237 
231 238 
232 239 
232 240 
233 237 
233 240 
233 403 
234 238 
234 239 
234 404 
235 237 
235 239 
235 501 
236 238 
236 240 
236 502 
241 247 
241 248 
242 249 
242 250 
243 247 
243 250 
243 361 
244 248 
244 249 
244 362 
245 247 
245 249 
245 593 
246 248 
246 250 
246 594 
251 257 
251 258 
252 259 
252 260 
253 257 
253 260 
253 331 
254 258 
254 259 
254 332 
255 257 
255 259 
255 453 
256 258 
256 260 
256 454 
261 267 
261 268 
261 475 
262 269 
262 270 
262 476 
263 267 
263 270 
263 513 
264 268 
264 269 
264 514 
265 267 
265 269 
265 581 
266 268 
266 270 
266 582 
271 277 
271 278 
272 279 
272 280 
273 277 
273 280 
273 343 
274 278 
274 279 
274 344 
275 277 
275 279 
275 351 
276 278 
276 280 
276 352 
281 287 
281 288 
282 289 
282 290 
283 287 
283 290 
284 288 
284 289 
285 287 
285 289 
285 303 
286 288 
286 290 
286 304 
291 297 
291 298 
291 465 
292 299 
292 300 
292 466 
293 297 
293 300 
293 545 
294 298 
294 299 
294 546 
295 297 
295 299 
295 561 
296 298 
296 300 
296 562 
301 307 
301 308 
302 309 
302 310 
303 307 
303 310 
304 308 
304 309 
305 307 
305 309 
305 375 
306 308 
306 310 
306 376 
311 317 
311 318 
312 319 
312 320 
313 317 
313 320 
313 345 
314 318 
314 319 
314 346 
315 317 
315 319 
315 563 
316 318 
316 320 
316 564 
321 327 
321 328 
321 383 
322 329 
322 330 
322 384 
323 327 
323 330 
323 441 
324 328 
324 329 
324 442 
325 327 
325 329 
325 455 
326 328 
326 330 
326 456 
331 337 
331 338 
332 339 
332 340 
333 337 
333 340 
333 493 
334 338 
334 339 
334 494 
335 337 
335 339 
335 583 
336 338 
336 340 
336 584 
341 347 
341 348 
342 349 
342 350 
343 347 
343 350 
344 348 
344 349 
345 347 
345 349 
346 348 
346 350 
351 357 
351 358 
352 359 
352 360 
353 357 
353 360 
353 443 
354 358 
354 359 
354 444 
355 357 
355 359 
355 515 
356 358 
356 360 
356 516 
361 367 
361 368 
362 369 
362 370 
363 367 
363 370 
363 445 
364 368 
364 369 
364 446 
365 367 
365 369 
365 503 
366 368 
366 370 
366 504 
371 377 
371 378 
372 379 
372 380 
373 377 
373 380 
374 378 
374 379 
375 377 
375 379 
376 378 
376 380 
381 387 
381 388 
382 389 
382 390 
383 387 
383 390 
384 388 
384 389 
385 387 
385 389 
385 495 
386 388 
386 390 
386 496 
391 397 
391 398 
392 399 
392 400 
393 397 
393 400 
394 398 
394 399 
395 397 
395 399 
395 435 
396 398 
396 400 
396 436 
401 407 
401 408 
402 409 
402 410 
403 407 
403 410 
404 408 
404 409 
405 407 
405 409 
405 573 
406 408 
406 410 
406 574 
411 417 
411 418 
412 419 
412 420 
413 417 
413 420 
413 505 
414 418 
414 419 
414 506 
415 417 
415 419 
415 595 
416 418 
416 420 
416 596 
421 427 
421 428 
422 429 
422 430 
423 427 
423 430 
423 551 
424 428 
424 429 
424 552 
425 427 
425 429 
425 575 
426 428 
426 430 
426 576 
431 437 
431 438 
432 439 
432 440 
433 437 
433 440 
434 438 
434 439 
435 437 
435 439 
436 438 
436 440 
441 447 
441 448 
442 449 
442 450 
443 447 
443 450 
444 448 
444 449 
445 447 
445 449 
446 448 
446 450 
451 457 
451 458 
452 459 
452 460 
453 457 
453 460 
454 458 
454 459 
455 457 
455 459 
456 458 
456 460 
461 467 
461 468 
462 469 
462 470 
463 467 
463 470 
464 468 
464 469 
465 467 
465 469 
466 468 
466 470 
471 477 
471 478 
472 479 
472 480 
473 477 
473 480 
474 478 
474 479 
475 477 
475 479 
476 478 
476 480 
481 487 
481 488 
482 489 
482 490 
483 487 
483 490 
484 488 
484 489 
485 487 
485 489 
485 565 
486 488 
486 490 
486 566 
491 497 
491 498 
492 499 
492 500 
493 497 
493 500 
494 498 
494 499 
495 497 
495 499 
496 498 
496 500 
501 507 
501 508 
502 509 
502 510 
503 507 
503 510 
504 508 
504 509 
505 507 
505 509 
506 508 
506 510 
511 517 
511 518 
512 519 
512 520 
513 517 
513 520 
514 518 
514 519 
515 517 
515 519 
516 518 
516 520 
521 527 
521 528 
522 529 
522 530 
523 527 
523 530 
524 528 
524 529 
525 527 
525 529 
525 533 
526 528 
526 530 
526 534 
531 537 
531 538 
532 539 
532 540 
533 537 
533 540 
534 538 
534 539 
535 537 
535 539 
535 553 
536 538 
536 540 
536 554 
541 547 
541 548 
542 549 
542 550 
543 547 
543 550 
544 548 
544 549 
545 547 
545 549 
546 548 
546 550 
551 557 
551 558 
552 559 
552 560 
553 557 
553 560 
554 558 
554 559 
555 557 
555 559 
555 585 
556 558 
556 560 
556 586 
561 567 
561 568 
562 569 
562 570 
563 567 
563 570 
564 568 
564 569 
565 567 
565 569 
566 568 
566 570 
571 577 
571 578 
572 579 
572 580 
573 577 
573 580 
574 578 
574 579 
575 577 
575 579 
576 578 
576 580 
581 587 
581 588 
582 589 
582 590 
583 587 
583 590 
584 588 
584 589 
585 587 
585 589 
586 588 
586 590 
591 597 
591 598 
592 599 
592 600 
593 597 
593 600 
594 598 
594 599 
595 597 
595 599 
596 598 
596 600 
